data/solutions/planning/wellformed/moderate/weighting/wellformed_moderate_instance95_gurobi.sol
Elapsed time: 6.08
Nodes explored: 64845
Nodes left: 9706
Relative gap: 0.001
Upper bound: 535434.0
Lower bound: 535430
C[0]=8499.0
C[1]=8499.0
C[2]=8499.0
C[3]=8499.0
C[4]=8499.0
C[5]=8496.0
y[0]=5
y[1]=5
y[2]=4
y[3]=5
y[4]=3
y[5]=0
y[6]=4
y[7]=5
y[8]=3
y[9]=0
y[10]=5
y[11]=3
y[12]=1
y[13]=2
y[14]=1
y[15]=3
y[16]=0
y[17]=3
y[18]=2
y[19]=4
y[20]=4
y[21]=4
y[22]=4
y[23]=2
y[24]=2
y[25]=0
y[26]=3
y[27]=1
y[28]=1
y[29]=4
y[30]=2
y[31]=2
y[32]=0
y[33]=3
y[34]=5
y[35]=2
y[36]=1
y[37]=0
y[38]=3
y[39]=2
y[40]=4
y[41]=0
y[42]=0
y[43]=1
y[44]=0
y[45]=4
y[46]=4
y[47]=5
y[48]=5
y[49]=1
